c 
c G(k,n,p) graph
c graph gen seed     : 544430
c number of vertices : 70
c max number of edges: 1225
c number of classes  : 2
c edge density       : 0.100000
c edge probability   : 0.200000
c data structure     : sparse
c
c           Graph Stats
c number of vertices  : 70
c nonisolated vertices: 70
c number of edges     : 208
c edge density        : 0.086128
c max degree          : 15
c avg degree          : 5.94
c min degree          : 1
p col 70 208
e 1 46
e 1 38
e 1 37
e 1 25
e 1 8
e 2 46
e 2 38
e 2 25
e 2 15
e 2 12
e 3 26
e 3 22
e 3 6
e 4 40
e 4 33
e 4 15
e 4 8
e 5 70
e 5 60
e 5 50
e 5 48
e 5 41
e 5 35
e 5 24
e 6 63
e 6 58
e 6 57
e 6 55
e 6 50
e 6 49
e 6 47
e 6 44
e 6 39
e 6 36
e 6 31
e 6 23
e 6 14
e 7 51
e 7 46
e 7 34
e 7 19
e 7 15
e 7 12
e 8 70
e 8 60
e 8 52
e 8 50
e 8 47
e 8 44
e 8 41
e 8 35
e 9 34
e 9 30
e 10 70
e 10 68
e 10 60
e 10 41
e 10 39
e 10 36
e 10 27
e 10 24
e 11 66
e 11 65
e 11 54
e 11 49
e 11 35
e 11 28
e 11 27
e 12 69
e 12 61
e 12 60
e 12 50
e 12 49
e 12 44
e 12 35
e 12 29
e 12 27
e 13 70
e 13 54
e 13 44
e 14 37
e 14 22
e 14 15
e 15 60
e 15 58
e 15 55
e 15 47
e 15 41
e 15 28
e 16 67
e 16 37
e 16 26
e 17 64
e 17 34
e 17 32
e 17 30
e 17 22
e 17 21
e 18 46
e 18 40
e 18 34
e 18 33
e 18 26
e 18 21
e 19 70
e 19 63
e 19 61
e 19 59
e 19 56
e 19 52
e 19 48
e 19 47
e 19 42
e 19 35
e 19 31
e 19 29
e 20 67
e 21 70
e 21 69
e 21 59
e 21 52
e 21 47
e 21 41
e 21 39
e 21 31
e 21 24
e 22 61
e 22 55
e 22 41
e 22 23
e 23 51
e 23 37
e 24 30
e 25 69
e 25 68
e 25 61
e 25 49
e 25 35
e 26 69
e 26 59
e 26 56
e 26 50
e 26 47
e 26 45
e 26 41
e 26 39
e 26 28
e 28 67
e 28 33
e 29 67
e 29 64
e 29 43
e 29 38
e 29 32
e 30 54
e 30 48
e 30 45
e 30 42
e 31 38
e 31 34
e 32 69
e 32 66
e 32 65
e 32 63
e 32 60
e 32 59
e 32 54
e 32 53
e 32 47
e 32 44
e 32 42
e 32 39
e 32 36
e 33 69
e 33 63
e 33 62
e 33 56
e 33 47
e 33 44
e 33 35
e 34 54
e 34 53
e 34 52
e 35 37
e 36 43
e 37 55
e 37 44
e 37 42
e 38 69
e 38 57
e 38 56
e 38 45
e 40 65
e 40 60
e 40 55
e 40 49
e 40 48
e 40 45
e 42 43
e 43 58
e 43 45
e 46 65
e 46 60
e 46 59
e 48 67
e 62 67
e 63 64
e 64 68
